50, 12109
571, 495
633, 596
818, 729
278, 233
652, 592
891, 829
909, 940
187, 179
652, 647
618, 589
504, 512
967, 1024
529, 490
446, 360
944, 940
636, 612
302, 358
310, 232
497, 572
53, 3
608, 616
736, 725
427, 390
847, 925
928, 969
556, 488
682, 681
118, 141
57, 6
981, 898
285, 305
214, 260
897, 890
750, 734
124, 125
322, 274
243, 319
273, 366
7, 52
525, 429
305, 284
395, 456
186, 151
111, 32
33, 25
873, 916
748, 773
560, 517
124, 149
149, 201
